************************************************************************
file with basedata            : mm58_.bas
initial value random generator: 1632787957
************************************************************************
projects                      :  1
jobs (incl. supersource/sink ):  12
horizon                       :  80
RESOURCES
  - renewable                 :  2   R
  - nonrenewable              :  2   N
  - doubly constrained        :  0   D
************************************************************************
PROJECT INFORMATION:
pronr.  #jobs rel.date duedate tardcost  MPM-Time
    1     10      0       17        3       17
************************************************************************
PRECEDENCE RELATIONS:
jobnr.    #modes  #successors   successors
   0        1          3           1   2   3
   1        3          1           8
   2        3          3           4   5   9
   3        3          2           5   6
   4        3          2           7   8
   5        3          1          10
   6        3          2           8   9
   7        3          1          10
   8        3          1          11
   9        3          1          11
  10        3          1          11
  11        1          0        
************************************************************************
REQUESTS/DURATIONS:
jobnr. mode duration  R 1  R 2  R 3  R 4  E(W 1)
------------------------------------------------------------------------
  0      1     0       0    0    0    0     0
  1      1     2       3    7    4    0    28
  2      1     8       9    6    0    6    168
  3      1     5      10    8    0    7    125
  4      1     4       3    7    9    0    76
  5      1     3       8    4    9    0    63
  6      1     2       4    6    6    0    32
  7      1     1       8    6    0   10    24
  8      1     1       6    5    0    7    18
  9      1     4       2    7    2    0    44
 10      1     4       3    6    5    0    56
 11      1     0       0    0    0    0     0
************************************************************************
RESOURCEAVAILABILITIES:
  R 1
   107
************************************************************************
RESOURCE LIMITS:
jobnr.  l(R 1)  u(R 1)
------------------------------------------------------------------------
  0        0       0
  1        8      14
  2       11      21
  3       13      25
  4       11      19
  5       11      21
  6        8      16
  7       12      24
  8       10      18
  9        6      11
 10        8      14
 11        0       0
************************************************************************
SCENARIOS:
------------------------------------------------------------------------
RESOURCE k = 1
s = 1: (0, 38, 157, 151, 54, 56, 29, 24, 14, 26, 68, 0)
s = 2: (0, 18, 135, 167, 62, 40, 48, 34, 16, 76, 47, 0)
s = 3: (0, 17, 129, 115, 77, 39, 22, 31, 16, 32, 70, 0)
s = 4: (0, 21, 232, 144, 81, 65, 28, 21, 21, 48, 74, 0)
s = 5: (0, 32, 118, 138, 52, 77, 19, 20, 16, 30, 54, 0)
s = 6: (0, 25, 210, 178, 70, 54, 37, 15, 14, 32, 79, 0)
s = 7: (0, 50, 205, 100, 41, 48, 29, 23, 14, 62, 44, 0)
s = 8: (0, 26, 118, 89, 84, 65, 47, 25, 16, 35, 61, 0)
s = 9: (0, 17, 181, 141, 55, 66, 34, 17, 16, 60, 78, 0)
s = 10: (0, 34, 173, 192, 78, 40, 26, 22, 15, 29, 47, 0)
s = 11: (0, 28, 94, 113, 116, 50, 38, 25, 23, 50, 45, 0)
s = 12: (0, 20, 136, 207, 86, 56, 58, 25, 23, 49, 48, 0)
s = 13: (0, 18, 174, 121, 74, 50, 22, 18, 13, 37, 35, 0)
s = 14: (0, 29, 98, 122, 51, 44, 34, 24, 29, 35, 36, 0)
s = 15: (0, 33, 194, 162, 63, 60, 26, 26, 19, 49, 37, 0)
s = 16: (0, 32, 228, 71, 107, 100, 63, 22, 14, 56, 50, 0)
s = 17: (0, 42, 142, 224, 96, 50, 33, 26, 13, 48, 85, 0)
s = 18: (0, 25, 185, 131, 102, 80, 20, 21, 20, 61, 43, 0)
s = 19: (0, 16, 113, 165, 91, 79, 36, 21, 10, 36, 41, 0)
s = 20: (0, 32, 249, 116, 62, 43, 46, 18, 14, 31, 79, 0)
s = 21: (0, 37, 110, 175, 45, 60, 19, 34, 18, 50, 68, 0)
s = 22: (0, 24, 249, 138, 59, 77, 33, 34, 16, 37, 52, 0)
s = 23: (0, 23, 102, 87, 104, 46, 25, 25, 17, 42, 68, 0)
s = 24: (0, 23, 151, 203, 60, 62, 39, 24, 22, 31, 68, 0)
s = 25: (0, 16, 117, 118, 75, 43, 57, 28, 12, 43, 69, 0)
s = 26: (0, 27, 92, 95, 68, 80, 28, 37, 20, 48, 40, 0)
s = 27: (0, 18, 156, 188, 77, 43, 33, 37, 15, 24, 45, 0)
s = 28: (0, 26, 205, 169, 69, 47, 25, 22, 10, 42, 60, 0)
s = 29: (0, 31, 205, 100, 97, 66, 39, 35, 23, 28, 34, 0)
s = 30: (0, 44, 240, 93, 43, 109, 39, 21, 13, 44, 86, 0)
s = 31: (0, 26, 109, 162, 61, 82, 26, 27, 20, 35, 61, 0)
s = 32: (0, 29, 258, 162, 56, 70, 39, 21, 14, 47, 47, 0)
s = 33: (0, 32, 101, 121, 45, 51, 30, 36, 22, 61, 35, 0)
s = 34: (0, 24, 235, 81, 71, 55, 22, 19, 20, 30, 40, 0)
s = 35: (0, 29, 172, 76, 82, 44, 25, 18, 11, 44, 50, 0)
s = 36: (0, 21, 269, 95, 44, 66, 43, 26, 24, 28, 60, 0)
s = 37: (0, 25, 116, 135, 68, 72, 38, 22, 29, 39, 40, 0)
s = 38: (0, 27, 107, 128, 72, 45, 26, 16, 31, 48, 82, 0)
s = 39: (0, 27, 192, 147, 95, 65, 20, 21, 21, 68, 69, 0)
s = 40: (0, 43, 175, 130, 115, 34, 33, 35, 15, 44, 58, 0)
s = 41: (0, 24, 184, 225, 74, 54, 47, 37, 13, 53, 59, 0)
s = 42: (0, 17, 197, 175, 66, 61, 37, 16, 19, 57, 75, 0)
s = 43: (0, 25, 304, 114, 46, 93, 40, 13, 28, 48, 81, 0)
s = 44: (0, 17, 136, 159, 75, 78, 41, 21, 23, 72, 80, 0)
s = 45: (0, 32, 206, 74, 52, 48, 30, 26, 14, 40, 33, 0)
s = 46: (0, 21, 155, 139, 68, 38, 49, 26, 13, 44, 86, 0)
s = 47: (0, 29, 116, 184, 104, 67, 20, 25, 11, 54, 41, 0)
s = 48: (0, 51, 199, 90, 64, 62, 24, 19, 27, 28, 32, 0)
s = 49: (0, 22, 180, 110, 85, 46, 23, 23, 16, 51, 45, 0)
s = 50: (0, 40, 125, 145, 85, 86, 38, 19, 21, 29, 59, 0)
s = 51: (0, 33, 94, 162, 83, 56, 22, 23, 20, 45, 60, 0)
s = 52: (0, 19, 154, 135, 70, 35, 31, 39, 16, 45, 61, 0)
s = 53: (0, 35, 95, 76, 58, 42, 41, 14, 14, 42, 67, 0)
s = 54: (0, 21, 253, 124, 49, 44, 31, 36, 19, 47, 75, 0)
s = 55: (0, 37, 157, 107, 81, 67, 55, 34, 19, 35, 60, 0)
s = 56: (0, 39, 130, 104, 64, 38, 22, 21, 11, 48, 46, 0)
s = 57: (0, 40, 128, 145, 57, 63, 34, 28, 18, 54, 88, 0)
s = 58: (0, 31, 160, 146, 49, 76, 28, 19, 10, 42, 100, 0)
s = 59: (0, 26, 125, 138, 71, 40, 26, 28, 22, 31, 64, 0)
s = 60: (0, 24, 175, 102, 86, 93, 33, 19, 21, 61, 62, 0)
s = 61: (0, 29, 183, 151, 56, 86, 39, 15, 15, 39, 47, 0)
s = 62: (0, 30, 163, 124, 87, 45, 47, 19, 25, 56, 48, 0)
s = 63: (0, 27, 146, 160, 97, 37, 35, 17, 17, 70, 64, 0)
s = 64: (0, 29, 274, 93, 79, 77, 40, 24, 14, 34, 46, 0)
s = 65: (0, 35, 160, 175, 71, 59, 36, 23, 12, 37, 46, 0)
s = 66: (0, 27, 199, 106, 59, 45, 25, 18, 11, 36, 62, 0)
s = 67: (0, 31, 153, 115, 102, 63, 29, 35, 24, 42, 47, 0)
s = 68: (0, 24, 136, 168, 50, 58, 30, 19, 15, 33, 38, 0)
s = 69: (0, 22, 100, 79, 67, 42, 31, 26, 17, 43, 73, 0)
s = 70: (0, 30, 102, 189, 110, 57, 27, 32, 14, 60, 48, 0)
s = 71: (0, 23, 128, 145, 118, 56, 25, 19, 16, 46, 46, 0)
s = 72: (0, 30, 118, 83, 86, 80, 25, 35, 17, 55, 44, 0)
s = 73: (0, 26, 172, 92, 58, 38, 19, 23, 21, 47, 41, 0)
s = 74: (0, 27, 251, 88, 48, 67, 28, 33, 27, 36, 62, 0)
s = 75: (0, 21, 132, 110, 97, 46, 38, 22, 14, 49, 66, 0)
s = 76: (0, 24, 121, 89, 69, 58, 45, 27, 23, 48, 40, 0)
s = 77: (0, 15, 116, 167, 65, 100, 37, 17, 20, 37, 43, 0)
s = 78: (0, 24, 136, 101, 61, 73, 26, 30, 16, 60, 48, 0)
s = 79: (0, 33, 107, 98, 67, 45, 29, 18, 13, 34, 73, 0)
s = 80: (0, 22, 186, 87, 58, 66, 34, 28, 13, 58, 55, 0)
s = 81: (0, 23, 156, 161, 83, 65, 28, 28, 26, 41, 60, 0)
s = 82: (0, 29, 156, 109, 73, 40, 27, 30, 22, 36, 67, 0)
s = 83: (0, 26, 88, 131, 56, 43, 31, 25, 19, 32, 53, 0)
s = 84: (0, 40, 170, 95, 77, 77, 26, 20, 11, 40, 82, 0)
s = 85: (0, 29, 171, 107, 85, 50, 19, 27, 17, 33, 60, 0)
s = 86: (0, 30, 214, 107, 83, 50, 39, 24, 18, 32, 74, 0)
s = 87: (0, 34, 262, 130, 84, 95, 29, 22, 20, 78, 35, 0)
s = 88: (0, 27, 184, 98, 56, 100, 27, 31, 29, 37, 34, 0)
s = 89: (0, 44, 111, 103, 91, 53, 32, 16, 13, 48, 34, 0)
s = 90: (0, 29, 215, 126, 50, 70, 20, 23, 29, 50, 71, 0)
s = 91: (0, 27, 164, 129, 78, 79, 44, 17, 18, 40, 65, 0)
s = 92: (0, 31, 148, 182, 89, 80, 29, 15, 14, 43, 56, 0)
s = 93: (0, 31, 108, 119, 90, 62, 39, 28, 20, 57, 49, 0)
s = 94: (0, 16, 169, 130, 90, 54, 46, 24, 15, 33, 68, 0)
s = 95: (0, 25, 223, 95, 64, 91, 21, 26, 11, 41, 36, 0)
s = 96: (0, 23, 206, 98, 106, 65, 35, 22, 19, 46, 84, 0)
s = 97: (0, 31, 256, 96, 93, 45, 30, 31, 17, 41, 63, 0)
s = 98: (0, 38, 130, 104, 60, 45, 31, 28, 15, 43, 40, 0)
s = 99: (0, 21, 199, 67, 45, 53, 19, 31, 20, 55, 52, 0)
s = 100: (0, 35, 144, 101, 67, 57, 34, 38, 12, 31, 46, 0)
s = 101: (0, 27, 212, 98, 66, 44, 26, 39, 14, 37, 53, 0)
s = 102: (0, 26, 264, 195, 45, 57, 43, 37, 22, 42, 75, 0)
s = 103: (0, 34, 164, 154, 51, 75, 32, 25, 27, 33, 47, 0)
s = 104: (0, 26, 118, 104, 73, 49, 50, 22, 18, 52, 60, 0)
s = 105: (0, 36, 158, 122, 50, 46, 24, 41, 23, 48, 43, 0)
s = 106: (0, 20, 135, 66, 80, 104, 21, 19, 24, 70, 44, 0)
s = 107: (0, 37, 173, 192, 76, 60, 33, 14, 12, 27, 49, 0)
s = 108: (0, 22, 140, 133, 46, 39, 46, 17, 14, 57, 52, 0)
s = 109: (0, 32, 116, 125, 68, 52, 44, 27, 23, 67, 59, 0)
s = 110: (0, 52, 237, 90, 64, 43, 35, 28, 13, 31, 66, 0)
s = 111: (0, 23, 246, 119, 92, 82, 32, 24, 16, 41, 38, 0)
s = 112: (0, 30, 110, 97, 53, 74, 36, 20, 22, 59, 102, 0)
s = 113: (0, 39, 115, 143, 52, 37, 38, 29, 17, 45, 63, 0)
s = 114: (0, 32, 125, 146, 57, 51, 19, 32, 14, 63, 77, 0)
s = 115: (0, 19, 206, 87, 72, 39, 21, 30, 26, 51, 43, 0)
s = 116: (0, 19, 121, 132, 78, 86, 32, 30, 26, 68, 43, 0)
s = 117: (0, 23, 98, 88, 107, 81, 43, 26, 20, 53, 52, 0)
s = 118: (0, 25, 146, 186, 68, 66, 33, 23, 22, 53, 54, 0)
s = 119: (0, 20, 167, 167, 78, 51, 27, 28, 24, 33, 52, 0)
s = 120: (0, 34, 151, 108, 60, 68, 27, 26, 20, 33, 45, 0)
s = 121: (0, 29, 207, 113, 70, 81, 38, 14, 14, 59, 37, 0)
s = 122: (0, 31, 237, 115, 96, 47, 25, 24, 19, 44, 35, 0)
s = 123: (0, 24, 233, 87, 63, 93, 25, 21, 12, 25, 41, 0)
s = 124: (0, 44, 124, 79, 92, 77, 33, 32, 12, 38, 30, 0)
s = 125: (0, 29, 126, 131, 120, 91, 38, 16, 23, 61, 50, 0)
s = 126: (0, 20, 255, 118, 73, 83, 35, 47, 22, 35, 41, 0)
s = 127: (0, 34, 172, 112, 45, 64, 37, 29, 12, 52, 51, 0)
s = 128: (0, 25, 140, 124, 130, 67, 31, 37, 13, 56, 53, 0)
s = 129: (0, 24, 223, 71, 91, 55, 23, 18, 18, 38, 63, 0)
s = 130: (0, 26, 146, 106, 89, 108, 36, 26, 18, 49, 44, 0)
s = 131: (0, 25, 116, 98, 103, 65, 40, 23, 16, 59, 93, 0)
s = 132: (0, 26, 152, 175, 52, 64, 34, 30, 18, 57, 75, 0)
s = 133: (0, 39, 177, 158, 93, 84, 35, 19, 20, 52, 94, 0)
s = 134: (0, 35, 198, 89, 59, 81, 37, 30, 22, 55, 96, 0)
s = 135: (0, 42, 154, 164, 67, 77, 25, 23, 26, 43, 74, 0)
s = 136: (0, 35, 137, 178, 57, 99, 25, 30, 14, 54, 39, 0)
s = 137: (0, 24, 151, 174, 121, 89, 28, 20, 25, 26, 63, 0)
s = 138: (0, 22, 196, 96, 88, 73, 44, 24, 19, 33, 43, 0)
s = 139: (0, 21, 194, 167, 84, 55, 23, 21, 22, 35, 64, 0)
s = 140: (0, 35, 165, 117, 70, 64, 22, 21, 12, 38, 63, 0)
s = 141: (0, 32, 120, 84, 66, 64, 28, 19, 12, 80, 46, 0)
s = 142: (0, 31, 189, 99, 61, 77, 25, 22, 22, 33, 49, 0)
s = 143: (0, 26, 105, 120, 58, 87, 28, 21, 29, 51, 77, 0)
s = 144: (0, 22, 104, 123, 69, 82, 27, 22, 10, 54, 65, 0)
s = 145: (0, 25, 187, 246, 135, 97, 19, 28, 18, 44, 71, 0)
s = 146: (0, 32, 151, 127, 85, 47, 28, 18, 15, 53, 55, 0)
s = 147: (0, 16, 177, 119, 72, 66, 23, 29, 11, 51, 50, 0)
s = 148: (0, 19, 225, 110, 72, 82, 20, 19, 11, 69, 62, 0)
s = 149: (0, 22, 270, 85, 48, 37, 24, 19, 13, 29, 30, 0)
s = 150: (0, 18, 99, 114, 60, 48, 49, 21, 15, 51, 38, 0)
s = 151: (0, 21, 148, 81, 73, 69, 20, 31, 18, 35, 50, 0)
s = 152: (0, 17, 124, 145, 71, 74, 18, 25, 20, 43, 41, 0)
s = 153: (0, 20, 211, 114, 101, 82, 20, 16, 16, 51, 55, 0)
s = 154: (0, 29, 229, 97, 85, 68, 37, 26, 15, 26, 56, 0)
s = 155: (0, 16, 124, 74, 61, 72, 52, 27, 16, 41, 49, 0)
s = 156: (0, 27, 205, 157, 55, 78, 26, 32, 18, 64, 68, 0)
s = 157: (0, 22, 161, 100, 82, 70, 26, 16, 18, 45, 52, 0)
s = 158: (0, 41, 146, 146, 70, 86, 36, 25, 24, 52, 71, 0)
s = 159: (0, 22, 154, 98, 82, 55, 55, 33, 22, 57, 46, 0)
s = 160: (0, 17, 139, 116, 70, 104, 49, 19, 11, 43, 46, 0)
s = 161: (0, 19, 212, 74, 53, 81, 43, 34, 23, 48, 42, 0)
s = 162: (0, 36, 127, 150, 76, 51, 21, 13, 11, 42, 75, 0)
s = 163: (0, 32, 143, 186, 69, 69, 27, 33, 15, 34, 69, 0)
s = 164: (0, 42, 154, 75, 58, 51, 40, 23, 18, 53, 52, 0)
s = 165: (0, 20, 206, 139, 78, 76, 26, 26, 17, 34, 38, 0)
s = 166: (0, 24, 141, 102, 88, 57, 42, 41, 22, 33, 53, 0)
s = 167: (0, 46, 158, 100, 114, 62, 29, 27, 13, 29, 57, 0)
s = 168: (0, 29, 215, 172, 92, 101, 26, 19, 27, 44, 51, 0)
s = 169: (0, 30, 195, 97, 51, 51, 47, 23, 16, 51, 40, 0)
s = 170: (0, 28, 206, 73, 91, 71, 35, 40, 14, 52, 36, 0)
s = 171: (0, 47, 122, 89, 52, 42, 46, 18, 13, 53, 58, 0)
s = 172: (0, 27, 188, 86, 70, 109, 23, 29, 21, 46, 90, 0)
s = 173: (0, 26, 107, 83, 54, 46, 47, 24, 17, 39, 48, 0)
s = 174: (0, 34, 185, 123, 143, 59, 29, 18, 16, 46, 54, 0)
s = 175: (0, 27, 185, 169, 82, 56, 22, 37, 16, 24, 67, 0)
s = 176: (0, 28, 219, 146, 61, 71, 23, 27, 11, 44, 91, 0)
s = 177: (0, 21, 148, 163, 98, 73, 20, 20, 15, 49, 40, 0)
s = 178: (0, 39, 142, 132, 81, 49, 35, 40, 15, 26, 52, 0)
s = 179: (0, 27, 194, 153, 86, 87, 19, 45, 21, 56, 56, 0)
s = 180: (0, 27, 189, 84, 83, 90, 36, 24, 24, 42, 89, 0)
s = 181: (0, 21, 144, 112, 64, 100, 28, 33, 22, 33, 50, 0)
s = 182: (0, 30, 139, 96, 65, 50, 52, 15, 18, 29, 76, 0)
s = 183: (0, 28, 124, 160, 77, 51, 32, 26, 20, 47, 51, 0)
s = 184: (0, 40, 154, 120, 89, 41, 25, 21, 19, 60, 77, 0)
s = 185: (0, 40, 156, 75, 67, 114, 22, 19, 15, 54, 31, 0)
s = 186: (0, 53, 214, 117, 62, 84, 22, 20, 11, 53, 38, 0)
s = 187: (0, 25, 147, 98, 54, 56, 33, 21, 24, 58, 86, 0)
s = 188: (0, 26, 115, 77, 84, 67, 33, 25, 19, 51, 81, 0)
s = 189: (0, 17, 208, 157, 95, 63, 32, 26, 36, 25, 81, 0)
s = 190: (0, 20, 105, 97, 87, 74, 27, 14, 14, 64, 92, 0)
s = 191: (0, 23, 106, 86, 55, 60, 27, 26, 17, 39, 87, 0)
s = 192: (0, 23, 171, 185, 116, 43, 30, 17, 17, 41, 42, 0)
s = 193: (0, 32, 194, 137, 59, 88, 20, 18, 14, 48, 63, 0)
s = 194: (0, 34, 157, 149, 96, 50, 36, 28, 17, 41, 38, 0)
s = 195: (0, 15, 156, 141, 76, 74, 28, 27, 19, 46, 50, 0)
s = 196: (0, 34, 307, 82, 89, 42, 26, 29, 22, 27, 50, 0)
s = 197: (0, 40, 306, 98, 96, 46, 24, 16, 11, 30, 45, 0)
s = 198: (0, 15, 118, 132, 79, 79, 36, 16, 21, 32, 82, 0)
s = 199: (0, 38, 210, 175, 107, 48, 48, 16, 18, 42, 98, 0)
s = 200: (0, 27, 205, 105, 84, 56, 34, 31, 15, 52, 66, 0)
************************************************************************
ES/LS-VALUES:
jobnr.   ES(i)    LS(i)
------------------------------------------------------------------------
  0        0        0
  1        0       74
  2        0       47
  3        0       56
  4       14       62
  5       14       66
  6        9       68
  7       21       70
  8       21       78
  9       14       72
 10       22       72
 11       29       80
************************************************************************
BIG-M-VALUES:
M1 = 28, M2 = 307
************************************************************************
